solution status: gap limit reached
objective value:                           74103.5581
y#3                                                 1 	(obj:5700)
y#4                                                 1 	(obj:5700)
y#11                                                1 	(obj:5700)
y#19                                                1 	(obj:5700)
y#20                                                1 	(obj:5700)
y#24                                                1 	(obj:5700)
y#26                                                1 	(obj:5700)
y#27                                                1 	(obj:5700)
y#30                                                1 	(obj:5700)
y#33                                                1 	(obj:5700)
y#34                                                1 	(obj:5700)
y#36                                                1 	(obj:5700)
y#44                                                1 	(obj:5700)
x#1#27                                              1 	(obj:0.03536)
x#2#26                                              1 	(obj:0.02431)
x#3#4                                               1 	(obj:0.02958)
x#4#33                                              1 	(obj:0.02754)
x#5#34                                              1 	(obj:0.03417)
x#6#30                                              1 	(obj:0.01955)
x#7#26                                              1 	(obj:0.01003)
x#8#20                                              1 	(obj:0.01343)
x#9#11                                              1 	(obj:0.03876)
x#10#3                                              1 	(obj:0.03723)
x#11#3                                              1 	(obj:0.01207)
x#12#44                                             1 	(obj:0.00986)
x#13#30                                             1 	(obj:0.0034)
x#14#44                                             1 	(obj:0.03706)
x#15#30                                             1 	(obj:0.01581)
x#16#27                                             1 	(obj:0.0289)
x#17#19                                             1 	(obj:0.02414)
x#18#26                                             1 	(obj:0.0187)
x#19#19                                             1 	(obj:0.02516)
x#20#19                                             1 	(obj:0.02465)
x#21#44                                             1 	(obj:0.02482)
x#22#34                                             1 	(obj:0.00986)
x#23#3                                              1 	(obj:0.04267)
x#24#34                                             1 	(obj:0.05576)
x#25#19                                             1 	(obj:0.01292)
x#26#4                                              1 	(obj:0.0204)
x#27#11                                             1 	(obj:0.03434)
x#28#33                                             1 	(obj:0.01955)
x#29#27                                             1 	(obj:0.03298)
x#30#33                                             1 	(obj:0.01853)
x#31#4                                              1 	(obj:0.01292)
x#32#44                                             1 	(obj:0.0102)
x#33#20                                             1 	(obj:0.02108)
x#34#27                                             1 	(obj:0.03298)
x#35#11                                             1 	(obj:0.05032)
x#36#44                                             1 	(obj:0.01564)
x#37#33                                             1 	(obj:0.01564)
x#38#3                                              1 	(obj:0.01819)
x#39#24                                             1 	(obj:0.05253)
x#40#24                                             1 	(obj:0.01955)
x#41#24                                             1 	(obj:0.0255)
x#42#20                                             1 	(obj:0.02261)
x#43#30                                             1 	(obj:0.01071)
x#44#30                                             1 	(obj:0.04964)
x#45#33                                             1 	(obj:0.01598)
x#46#27                                             1 	(obj:0.03893)
x#47#30                                             1 	(obj:0.01938)
x#48#20                                             1 	(obj:0.05338)
x#49#34                                             1 	(obj:0.01717)
x#50#24                                             1 	(obj:0.02465)
x#51#26                                             1 	(obj:0.03825)
x#52#26                                             1 	(obj:0.00578)
x#53#3                                              1 	(obj:0.03281)
x#54#11                                             1 	(obj:0.01377)
x#55#30                                             1 	(obj:0.01632)
x#56#11                                             1 	(obj:0.03196)
x#57#36                                             1 	(obj:0.04301)
x#58#26                                             1 	(obj:0.01445)
x#59#26                                             1 	(obj:0.04046)
x#60#11                                             1 	(obj:0.01768)
x#61#4                                              1 	(obj:0.0102)
x#62#36                                             1 	(obj:0.01972)
x#63#3                                              1 	(obj:0.01003)
x#64#3                                              1 	(obj:0.03043)
x#65#4                                              1 	(obj:0.03791)
x#66#33                                             1 	(obj:0.00714)
x#67#44                                             1 	(obj:0.01615)
x#68#19                                             1 	(obj:0.01938)
x#69#36                                             1 	(obj:0.03723)
x#70#20                                             1 	(obj:0.03043)
x#71#3                                              1 	(obj:0.04862)
x#72#4                                              1 	(obj:0.01275)
x#73#11                                             1 	(obj:0.02754)
x#74#11                                             1 	(obj:0.02873)
x#75#27                                             1 	(obj:0.02193)
x#76#34                                             1 	(obj:0.01122)
x#77#20                                             1 	(obj:0.00442)
x#78#34                                             1 	(obj:0.01139)
x#79#4                                              1 	(obj:0.01887)
x#80#44                                             1 	(obj:0.01377)
x#81#27                                             1 	(obj:0.0391)
x#82#27                                             1 	(obj:0.02023)
x#83#24                                             1 	(obj:0.00374)
x#84#19                                             1 	(obj:0.02448)
x#85#27                                             1 	(obj:0.01139)
x#86#3                                              1 	(obj:0.01887)
x#87#33                                             1 	(obj:0.03621)
x#88#24                                             1 	(obj:0.00119)
x#89#36                                             1 	(obj:0.01071)
x#90#44                                             1 	(obj:0.02788)
x#91#36                                             1 	(obj:0.00663)
x#92#34                                             1 	(obj:0.03043)
x#93#44                                             1 	(obj:0.02754)
x#94#30                                             1 	(obj:0.03162)
x#95#24                                             1 	(obj:0.03485)
x#96#26                                             1 	(obj:0.01734)
x#97#33                                             1 	(obj:0.05695)
x#98#4                                              1 	(obj:0.01666)
x#99#36                                             1 	(obj:0.0204)
x#100#20                                            1 	(obj:0.03196)
x#101#36                                            1 	(obj:0.07072)
x#102#30                                            1 	(obj:0.03162)
x#103#3                                             1 	(obj:0.00969)
x#104#3                                             1 	(obj:0.02533)
x#105#20                                            1 	(obj:0.00476)
x#106#30                                            1 	(obj:0.0085)
x#107#44                                            1 	(obj:0.00187)
x#108#20                                            1 	(obj:0.01819)
x#109#24                                            1 	(obj:0.01683)
x#110#34                                            1 	(obj:0.01071)
x#111#36                                            1 	(obj:0.03315)
x#112#24                                            1 	(obj:0.00612)
x#113#27                                            1 	(obj:0.01768)
x#114#11                                            1 	(obj:0.03043)
x#115#11                                            1 	(obj:0.01666)
x#116#26                                            1 	(obj:0.0187)
x#117#27                                            1 	(obj:0.01445)
x#118#34                                            1 	(obj:0.01615)
x#119#4                                             1 	(obj:0.03774)
x#120#24                                            1 	(obj:0.02074)
x#121#26                                            1 	(obj:0.02567)
x#122#24                                            1 	(obj:0.01173)
x#123#26                                            1 	(obj:0.02397)
x#124#36                                            1 	(obj:0.0085)
x#125#24                                            1 	(obj:0.0085)
x#126#36                                            1 	(obj:0.02771)
x#127#34                                            1 	(obj:0.02193)
x#128#34                                            1 	(obj:0.01156)
x#129#33                                            1 	(obj:0.00816)
x#130#4                                             1 	(obj:0.01224)
x#131#19                                            1 	(obj:0.02601)
x#132#19                                            1 	(obj:0.01683)
x#133#20                                            1 	(obj:0.01853)
x#134#20                                            1 	(obj:0.00833)
x#135#27                                            1 	(obj:0.04386)
x#136#33                                            1 	(obj:0.02584)
x#137#4                                             1 	(obj:0.00663)
x#138#19                                            1 	(obj:0.03485)
x#139#19                                            1 	(obj:0.01292)
x#140#3                                             1 	(obj:0.06358)
x#141#33                                            1 	(obj:0.06001)
x#142#11                                            1 	(obj:0.03213)
x#143#44                                            1 	(obj:0.03451)
x#144#4                                             1 	(obj:0.02873)
x#145#36                                            1 	(obj:0.06358)
x#146#11                                            1 	(obj:0.02516)
x#147#30                                            1 	(obj:0.01394)
x#148#19                                            1 	(obj:0.01717)
x#149#36                                            1 	(obj:0.0153)
x#150#34                                            1 	(obj:0.03111)
